7
0, 429, 315, 354, 459, 396, 406
429, 0, 347, 130, 262, 757, 164
315, 347, 0, 216, 543, 710, 208
354, 130, 216, 0, 356, 723, 68
459, 262, 543, 356, 0, 651, 412
396, 757, 710, 723, 651, 0, 784
406, 164, 208, 68, 412, 784, 0
